11,38,51
0
1
2
3
4
5
6
8,20,32,44,108
9
10
12
13
11,51,121
15
16
88,94,96,128
68,103
19
21
22
24,29
24
25
26
27
28
29
30
73,121
52,67
33
42,83
34
18
36
2,89
39
40
41
69,76
45,65,120
43
45
46
47
48
49
50
37
5,29,74
53
54
55
106
57
60
59
58
61
63
62
64
5,29
54,99
66
67
69
70
23,71
72
104,113
75
76
77
78
79
81
57,60
84
85
86
87
5,125
89
90
56,82
5,80
45,82
14,28
91
92
93
95
126
97
98
23,122
99
100
7,17
101
102
10,64
12,85
105
45,120
107
109
110
9,67
31,82
111
112
114
115
116
117
118
119
35,89
123
124
127
